Orca input
! opt cc-pvdz pbe

* xyz 0 1
C  1.400000  0.000000  0.320000
C  0.700000  1.212436 -0.320000
C -0.700000  1.212436  0.320000
C -1.400000  0.000000 -0.320000
C -0.700000 -1.212436  0.320000
C  0.700000 -1.212436 -0.320000
H  2.450000  0.000000  0.432000
H  1.225000  2.121762 -0.432000
H -1.225000  2.121762  0.432000
H -2.450000  0.000000 -0.432000
H -1.225000 -2.121762  0.432000
H  1.225000 -2.121762 -0.432000
*

