! freq pbe

* xyz 0 1
O   0.000000  0.000000  0.000000
H   0.957200  0.000000  0.000000
H  -0.239987  0.000000 -0.926627
*
